benchmarks/minver/minver.lp
Maximize

13 dSta_0 + 4 d0_1 + 18 d0_1 + 0 dSta_0 + 0 dSta_0 + 9 d1_2 + 0 d1_2 + 12 dSta_0 + 0 dSta_0 + 5 d2_3 + 0 d2_3 + 12 dSta_0 + 0 dSta_0 + 9 d2_2 + 0 d2_2 + 12 dSta_0 + 0 dSta_0 + 4 d3_4 + 0 d3_4 + 12 dSta_0 + 0 dSta_0 + 3 d3_1 + 0 d3_1 + 12 dSta_0 + 0 dSta_0 + 36 d4_11 + 6 d4_11 + 6 dSta_0 + 0 dSta_0 + 3 d5_6 + 6 d5_6 + 6 dSta_0 + 0 dSta_0 + 9 d6_7 + 0 d6_7 + 12 dSta_0 + 0 dSta_0 + 5 d7_8 + 0 d7_8 + 12 dSta_0 + 0 dSta_0 + 9 d7_7 + 0 d7_7 + 12 dSta_0 + 0 dSta_0 + 5 d8_9 + 0 d8_9 + 12 dSta_0 + 0 dSta_0 + 3 d8_6 + 0 d8_6 + 12 dSta_0 + 0 dSta_0 + 4 d9_66 + 6 d9_66 + 6 dSta_0 + 0 dSta_0 + 5 d11_12 + 36 d11_12 + 0 dSta_0 + 0 dSta_0 + 2 d11_13 + 36 d11_13 + 0 dSta_0 + 0 dSta_0 + 2 d12_13 + 6 d12_13 + 6 dSta_0 + 0 dSta_0 + 4 d12_15 + 6 d12_15 + 6 dSta_0 + 0 dSta_0 + 32 d13_57 + 0 d13_57 + 6 dSta_0 + 0 dSta_0 + 32 d14_57 + 0 d14_57 + 12 dSta_0 + 0 dSta_0 + 1 d15_16 + 12 d15_16 + 0 dSta_0 + 0 dSta_0 + 2 d15_18 + 12 d15_18 + 0 dSta_0 + 0 dSta_0 + 6 d16_17 + 0 d16_17 + 6 dSta_0 + 0 dSta_0 + 2 d17_18 + 0 d17_18 + 12 dSta_0 + 0 dSta_0 + 6 d17_17 + 0 d17_17 + 12 dSta_0 + 0 dSta_0 + 6 d18_19 + 6 d18_19 + 6 dSta_0 + 0 dSta_0 + 2 d18_47 + 6 d18_47 + 6 dSta_0 + 0 dSta_0 + 5 d19_20 + 6 d19_20 + 6 dSta_0 + 0 dSta_0 + 7 d20_21 + 0 d20_21 + 12 dSta_0 + 0 dSta_0 + 12 d20_26 + 0 d20_26 + 12 dSta_0 + 0 dSta_0 + 4 d21_22 + 0 d21_22 + 12 dSta_0 + 0 dSta_0 + 6 d22_58 + 0 d22_58 + 12 dSta_0 + 0 dSta_0 + 3 d23_24 + 0 d23_24 + 12 dSta_0 + 0 dSta_0 + 4 d23_25 + 0 d23_25 + 12 dSta_0 + 0 dSta_0 + 4 d24_25 + 0 d24_25 + 6 dSta_0 + 0 dSta_0 + 12 d25_26 + 0 d25_26 + 12 dSta_0 + 0 dSta_0 + 4 d25_22 + 0 d25_22 + 12 dSta_0 + 0 dSta_0 + 6 d26_62 + 0 d26_62 + 24 dSta_0 + 0 dSta_0 + 13 d27_28 + 0 d27_28 + 6 dSta_0 + 0 dSta_0 + 4 d27_14 + 0 d27_14 + 6 dSta_0 + 0 dSta_0 + 16 d28_29 + 0 d28_29 + 12 dSta_0 + 0 dSta_0 + 2 d28_32 + 0 d28_32 + 12 dSta_0 + 0 dSta_0 + 2 d29_30 + 0 d29_30 + 24 dSta_0 + 0 dSta_0 + 2 d29_32 + 0 d29_32 + 24 dSta_0 + 0 dSta_0 + 13 d30_31 + 0 d30_31 + 6 dSta_0 + 0 dSta_0 + 2 d31_32 + 0 d31_32 + 18 dSta_0 + 0 dSta_0 + 13 d31_31 + 0 d31_31 + 18 dSta_0 + 0 dSta_0 + 1 d32_33 + 0 d32_33 + 6 dSta_0 + 0 dSta_0 + 2 d32_35 + 0 d32_35 + 6 dSta_0 + 0 dSta_0 + 20 d33_34 + 0 d33_34 + 6 dSta_0 + 0 dSta_0 + 2 d34_35 + 0 d34_35 + 18 dSta_0 + 0 dSta_0 + 20 d34_34 + 0 d34_34 + 18 dSta_0 + 0 dSta_0 + 4 d35_36 + 0 d35_36 + 6 dSta_0 + 0 dSta_0 + 22 d35_46 + 0 d35_46 + 6 dSta_0 + 0 dSta_0 + 1 d36_37 + 0 d36_37 + 6 dSta_0 + 0 dSta_0 + 6 d37_38 + 0 d37_38 + 6 dSta_0 + 0 dSta_0 + 4 d37_45 + 0 d37_45 + 6 dSta_0 + 0 dSta_0 + 2 d38_39 + 0 d38_39 + 12 dSta_0 + 0 dSta_0 + 4 d38_45 + 0 d38_45 + 12 dSta_0 + 0 dSta_0 + 2 d39_40 + 0 d39_40 + 6 dSta_0 + 0 dSta_0 + 16 d39_44 + 0 d39_44 + 6 dSta_0 + 0 dSta_0 + 1 d40_41 + 0 d40_41 + 12 dSta_0 + 0 dSta_0 + 17 d41_42 + 0 d41_42 + 6 dSta_0 + 0 dSta_0 + 5 d41_43 + 0 d41_43 + 6 dSta_0 + 0 dSta_0 + 6 d42_43 + 0 d42_43 + 12 dSta_0 + 0 dSta_0 + 16 d43_44 + 0 d43_44 + 12 dSta_0 + 0 dSta_0 + 1 d43_41 + 0 d43_41 + 12 dSta_0 + 0 dSta_0 + 5 d44_45 + 0 d44_45 + 6 dSta_0 + 0 dSta_0 + 22 d45_46 + 0 d45_46 + 6 dSta_0 + 0 dSta_0 + 1 d45_37 + 0 d45_37 + 6 dSta_0 + 0 dSta_0 + 2 d46_47 + 0 d46_47 + 18 dSta_0 + 0 dSta_0 + 5 d46_20 + 0 d46_20 + 18 dSta_0 + 0 dSta_0 + 4 d47_48 + 0 d47_48 + 6 dSta_0 + 0 dSta_0 + 3 d47_56 + 0 d47_56 + 6 dSta_0 + 0 dSta_0 + 1 d48_49 + 6 d48_49 + 6 dSta_0 + 0 dSta_0 + 3 d49_50 + 0 d49_50 + 6 dSta_0 + 0 dSta_0 + 10 d50_51 + 0 d50_51 + 6 dSta_0 + 0 dSta_0 + 4 d50_55 + 0 d50_55 + 6 dSta_0 + 0 dSta_0 + 7 d51_52 + 0 d51_52 + 18 dSta_0 + 0 dSta_0 + 3 d51_50 + 0 d51_50 + 18 dSta_0 + 0 dSta_0 + 11 d52_53 + 0 d52_53 + 12 dSta_0 + 0 dSta_0 + 1 d53_54 + 0 d53_54 + 12 dSta_0 + 0 dSta_0 + 11 d53_53 + 0 d53_53 + 12 dSta_0 + 0 dSta_0 + 3 d54_50 + 0 d54_50 + 6 dSta_0 + 0 dSta_0 + 3 d55_56 + 0 d55_56 + 6 dSta_0 + 0 dSta_0 + 1 d55_49 + 0 d55_49 + 6 dSta_0 + 0 dSta_0 + 32 d56_57 + 6 d56_57 + 0 dSta_0 + 0 dSta_0 + 5 d57_5 + 24 d57_5 + 6 dSta_0 + 0 dSta_0 + 3 d58_59 + 0 d58_59 + 12 dSta_0 + 0 dSta_0 + 2 d58_60 + 0 d58_60 + 12 dSta_0 + 0 dSta_0 + 1 d59_61 + 0 d59_61 + 6 dSta_0 + 0 dSta_0 + 2 d60_61 + 0 d60_61 + 6 dSta_0 + 0 dSta_0 + 5 d61_23 + 0 d61_23 + 6 dSta_0 + 0 dSta_0 + 3 d62_63 + 0 d62_63 + 12 dSta_0 + 0 dSta_0 + 2 d62_64 + 0 d62_64 + 12 dSta_0 + 0 dSta_0 + 1 d63_65 + 0 d63_65 + 6 dSta_0 + 0 dSta_0 + 2 d64_65 + 0 d64_65 + 6 dSta_0 + 0 dSta_0 + 3 d65_27 + 0 d65_27 + 6 dSta_0 + 0 dSta_0 + 1 d66_67 + 6 d66_67 + 0 dSta_0 + 0 dSta_0 + 2 d66_70 + 6 d66_70 + 0 dSta_0 + 0 dSta_0 + 1 d67_68 + 6 d67_68 + 0 dSta_0 + 0 dSta_0 + 2 d67_70 + 6 d67_70 + 0 dSta_0 + 0 dSta_0 + 1 d68_69 + 0 d68_69 + 6 dSta_0 + 0 dSta_0 + 2 d68_70 + 0 d68_70 + 6 dSta_0 + 0 dSta_0 + 2 d69_70 + 0 d69_70 + 6 dSta_0 + 0 dSta_0 + 2 d69_71 + 0 d69_71 + 6 dSta_0 + 0 dSta_0 + 4 d70_81 + 6 d70_81 + 6 dSta_0 + 0 dSta_0 + 7 d71_72 + 6 d71_72 + 0 dSta_0 + 0 dSta_0 + 1 d71_80 + 6 d71_80 + 0 dSta_0 + 0 dSta_0 + 2 d72_73 + 12 d72_73 + 6 dSta_0 + 0 dSta_0 + 3 d73_74 + 0 d73_74 + 6 dSta_0 + 0 dSta_0 + 5 d73_79 + 0 d73_79 + 6 dSta_0 + 0 dSta_0 + 4 d74_75 + 0 d74_75 + 6 dSta_0 + 0 dSta_0 + 3 d75_76 + 0 d75_76 + 12 dSta_0 + 0 dSta_0 + 8 d75_78 + 0 d75_78 + 12 dSta_0 + 0 dSta_0 + 24 d76_77 + 0 d76_77 + 12 dSta_0 + 0 dSta_0 + 8 d77_78 + 0 d77_78 + 18 dSta_0 + 0 dSta_0 + 24 d77_77 + 0 d77_77 + 18 dSta_0 + 0 dSta_0 + 5 d78_79 + 0 d78_79 + 12 dSta_0 + 0 dSta_0 + 4 d78_75 + 0 d78_75 + 12 dSta_0 + 0 dSta_0 + 1 d79_80 + 0 d79_80 + 12 dSta_0 + 0 dSta_0 + 2 d79_73 + 0 d79_73 + 12 dSta_0 + 0 dSta_0 + 4 d80_81 + 6 d80_81 + 0 dSta_0 + 0 dSta_0 + 4 d81_10 + 0 d81_10 + 6 dSta_0 + 0 dSta_0


Subject to


\ === tcfg constraints ===
dSta_0 = 1
b0 - d0_1 = 0
b0 - dSta_0 = 0
b1 - d1_2 = 0
b1 - d0_1 - d3_1 = 0
b2 - d2_3 - d2_2 = 0
b2 - d1_2 - d2_2 = 0
b3 - d3_4 - d3_1 = 0
b3 - d2_3 = 0
b4 - d4_11 = 0
b4 - d3_4 = 0
b5 - d5_6 = 0
b5 - d57_5 = 0
b6 - d6_7 = 0
b6 - d5_6 - d8_6 = 0
b7 - d7_8 - d7_7 = 0
b7 - d6_7 - d7_7 = 0
b8 - d8_9 - d8_6 = 0
b8 - d7_8 = 0
b9 - d9_66 = 0
b9 - d8_9 = 0
b10 - d81_10 = 0
b11 - d11_12 - d11_13 = 0
b11 - d4_11 = 0
b12 - d12_13 - d12_15 = 0
b12 - d11_12 = 0
b13 - d13_57 = 0
b13 - d11_13 - d12_13 = 0
b14 - d14_57 = 0
b14 - d27_14 = 0
b15 - d15_16 - d15_18 = 0
b15 - d12_15 = 0
b16 - d16_17 = 0
b16 - d15_16 = 0
b17 - d17_18 - d17_17 = 0
b17 - d16_17 - d17_17 = 0
b18 - d18_19 - d18_47 = 0
b18 - d15_18 - d17_18 = 0
b19 - d19_20 = 0
b19 - d18_19 = 0
b20 - d20_21 - d20_26 = 0
b20 - d19_20 - d46_20 = 0
b21 - d21_22 = 0
b21 - d20_21 = 0
b22 - d22_58 = 0
b22 - d21_22 - d25_22 = 0
b23 - d23_24 - d23_25 = 0
b23 - d61_23 = 0
b24 - d24_25 = 0
b24 - d23_24 = 0
b25 - d25_26 - d25_22 = 0
b25 - d23_25 - d24_25 = 0
b26 - d26_62 = 0
b26 - d20_26 - d25_26 = 0
b27 - d27_28 - d27_14 = 0
b27 - d65_27 = 0
b28 - d28_29 - d28_32 = 0
b28 - d27_28 = 0
b29 - d29_30 - d29_32 = 0
b29 - d28_29 = 0
b30 - d30_31 = 0
b30 - d29_30 = 0
b31 - d31_32 - d31_31 = 0
b31 - d30_31 - d31_31 = 0
b32 - d32_33 - d32_35 = 0
b32 - d28_32 - d29_32 - d31_32 = 0
b33 - d33_34 = 0
b33 - d32_33 = 0
b34 - d34_35 - d34_34 = 0
b34 - d33_34 - d34_34 = 0
b35 - d35_36 - d35_46 = 0
b35 - d32_35 - d34_35 = 0
b36 - d36_37 = 0
b36 - d35_36 = 0
b37 - d37_38 - d37_45 = 0
b37 - d36_37 - d45_37 = 0
b38 - d38_39 - d38_45 = 0
b38 - d37_38 = 0
b39 - d39_40 - d39_44 = 0
b39 - d38_39 = 0
b40 - d40_41 = 0
b40 - d39_40 = 0
b41 - d41_42 - d41_43 = 0
b41 - d40_41 - d43_41 = 0
b42 - d42_43 = 0
b42 - d41_42 = 0
b43 - d43_44 - d43_41 = 0
b43 - d41_43 - d42_43 = 0
b44 - d44_45 = 0
b44 - d39_44 - d43_44 = 0
b45 - d45_46 - d45_37 = 0
b45 - d37_45 - d38_45 - d44_45 = 0
b46 - d46_47 - d46_20 = 0
b46 - d35_46 - d45_46 = 0
b47 - d47_48 - d47_56 = 0
b47 - d18_47 - d46_47 = 0
b48 - d48_49 = 0
b48 - d47_48 = 0
b49 - d49_50 = 0
b49 - d48_49 - d55_49 = 0
b50 - d50_51 - d50_55 = 0
b50 - d49_50 - d51_50 - d54_50 = 0
b51 - d51_52 - d51_50 = 0
b51 - d50_51 = 0
b52 - d52_53 = 0
b52 - d51_52 = 0
b53 - d53_54 - d53_53 = 0
b53 - d52_53 - d53_53 = 0
b54 - d54_50 = 0
b54 - d53_54 = 0
b55 - d55_56 - d55_49 = 0
b55 - d50_55 = 0
b56 - d56_57 = 0
b56 - d47_56 - d55_56 = 0
b57 - d57_5 = 0
b57 - d13_57 - d14_57 - d56_57 = 0
b58 - d58_59 - d58_60 = 0
b58 - d22_58 = 0
b59 - d59_61 = 0
b59 - d58_59 = 0
b60 - d60_61 = 0
b60 - d58_60 = 0
b61 - d61_23 = 0
b61 - d59_61 - d60_61 = 0
b62 - d62_63 - d62_64 = 0
b62 - d26_62 = 0
b63 - d63_65 = 0
b63 - d62_63 = 0
b64 - d64_65 = 0
b64 - d62_64 = 0
b65 - d65_27 = 0
b65 - d63_65 - d64_65 = 0
b66 - d66_67 - d66_70 = 0
b66 - d9_66 = 0
b67 - d67_68 - d67_70 = 0
b67 - d66_67 = 0
b68 - d68_69 - d68_70 = 0
b68 - d67_68 = 0
b69 - d69_70 - d69_71 = 0
b69 - d68_69 = 0
b70 - d70_81 = 0
b70 - d66_70 - d67_70 - d68_70 - d69_70 = 0
b71 - d71_72 - d71_80 = 0
b71 - d69_71 = 0
b72 - d72_73 = 0
b72 - d71_72 = 0
b73 - d73_74 - d73_79 = 0
b73 - d72_73 - d79_73 = 0
b74 - d74_75 = 0
b74 - d73_74 = 0
b75 - d75_76 - d75_78 = 0
b75 - d74_75 - d78_75 = 0
b76 - d76_77 = 0
b76 - d75_76 = 0
b77 - d77_78 - d77_77 = 0
b77 - d76_77 - d77_77 = 0
b78 - d78_79 - d78_75 = 0
b78 - d75_78 - d77_78 = 0
b79 - d79_80 - d79_73 = 0
b79 - d73_79 - d78_79 = 0
b80 - d80_81 = 0
b80 - d71_80 - d79_80 = 0
b81 - d81_10 = 0
b81 - d70_81 - d80_81 = 0


\ === infeasible path constraints ===

b0 = 1
b1 = 3
b2 = 9
b3 = 3
b4 = 1
b5 = 1
b6 = 3
b7 = 9
b8 = 3
b9 = 1
b10 = 1
b66 = 1
b70 = 0
b71 = 1
b80 = 1
b81 = 1
b11 = 1
b12 = 1
b13 = 0
b14 = 0
b15 = 1
b16 = 1
b17 = 3
b18 = 1
b19 = 1
b57 = 1
b79- 3 b72 =  0
b78- 3 b74 =  0
b77- 3 b76 =  0
b46- 3 b19 =  0
b25- 3 b21 =  0
b31- 3 b30 =  0
b34- 3 b33 =  0
b45- 3 b36 =  0
b43- 3 b40 =  0
b55- 3 b48 =  0
b54- 3 b49 =  0
b53- 3 b52 =  0

Generals

Sta
b0
d0_1
b1
d1_2
b2
d2_3
d2_2
b3
d3_4
d3_1
b4
d4_11
b5
d5_6
b6
d6_7
b7
d7_8
d7_7
b8
d8_9
d8_6
b9
d9_66
b10
b11
d11_12
d11_13
b12
d12_13
d12_15
b13
d13_57
b14
d14_57
b15
d15_16
d15_18
b16
d16_17
b17
d17_18
d17_17
b18
d18_19
d18_47
b19
d19_20
b20
d20_21
d20_26
b21
d21_22
b22
d22_58
b23
d23_24
d23_25
b24
d24_25
b25
d25_26
d25_22
b26
d26_62
b27
d27_28
d27_14
b28
d28_29
d28_32
b29
d29_30
d29_32
b30
d30_31
b31
d31_32
d31_31
b32
d32_33
d32_35
b33
d33_34
b34
d34_35
d34_34
b35
d35_36
d35_46
b36
d36_37
b37
d37_38
d37_45
b38
d38_39
d38_45
b39
d39_40
d39_44
b40
d40_41
b41
d41_42
d41_43
b42
d42_43
b43
d43_44
d43_41
b44
d44_45
b45
d45_46
d45_37
b46
d46_47
d46_20
b47
d47_48
d47_56
b48
d48_49
b49
d49_50
b50
d50_51
d50_55
b51
d51_52
d51_50
b52
d52_53
b53
d53_54
d53_53
b54
d54_50
b55
d55_56
d55_49
b56
d56_57
b57
d57_5
b58
d58_59
d58_60
b59
d59_61
b60
d60_61
b61
d61_23
b62
d62_63
d62_64
b63
d63_65
b64
d64_65
b65
d65_27
b66
d66_67
d66_70
b67
d67_68
d67_70
b68
d68_69
d68_70
b69
d69_70
d69_71
b70
d70_81
b71
d71_72
d71_80
b72
d72_73
b73
d73_74
d73_79
b74
d74_75
b75
d75_76
d75_78
b76
d76_77
b77
d77_78
d77_77
b78
d78_79
d78_75
b79
d79_80
d79_73
b80
d80_81
b81
d81_10

End
\ total_cons: 202 	total_vars: 207
