benchmarks/singlecore/minver/minver.out
sim-profile: SimpleScalar/PISA Tool Set version 3.0 of August, 2003.
Copyright (c) 1994-2003 by Todd M. Austin, Ph.D. and SimpleScalar, LLC.
All Rights Reserved. This version of SimpleScalar is licensed for academic
non-commercial use.  No portion of this work may be used by any commercial
entity, or for any commercial purpose, without the prior written permission
of SimpleScalar, LLC (info@simplescalar.com).

sim: command line: /home/sudiptac/sudiptac/Work/simplesim-3.0/sim-profile -pcstat sim_num_insn minver 

sim: simulation started @ Tue Aug  4 19:15:59 2009, options follow:

sim-profile: This simulator implements a functional simulator with
profiling support.  Run with the `-h' flag to see profiling options
available.

# -config                     # load configuration from a file
# -dumpconfig                 # dump configuration to a file
# -h                    false # print help message    
# -v                    false # verbose operation     
# -d                    false # enable debug message  
# -i                    false # start in Dlite debugger
-seed                       1 # random number generator seed (0 for timer seed)
# -q                    false # initialize and terminate immediately
# -chkpt               <null> # restore EIO trace execution from <fname>
# -redir:sim           <null> # redirect simulator output to file (non-interactive only)
# -redir:prog          <null> # redirect simulated program output to file
-nice                       0 # simulator scheduling priority
-max:inst                   0 # maximum number of inst's to execute
-all                    false # enable all profile options
-iclass                 false # enable instruction class profiling
-iprof                  false # enable instruction profiling
-brprof                 false # enable branch instruction profiling
-amprof                 false # enable address mode profiling
-segprof                false # enable load/store address segment profiling
-tsymprof               false # enable text symbol profiling
-taddrprof              false # enable text address profiling
-dsymprof               false # enable data symbol profiling
-internal               false # include compiler-internal symbols during symbol profiling
# -pcstat        sim_num_insn # profile stat(s) against text addr's (mult uses ok)

sim: ** starting functional simulation **

sim: ** simulation statistics **
sim_num_insn                   7358 # total number of instructions executed
sim_num_refs                   3845 # total number of loads and stores executed
sim_elapsed_time                  1 # total simulation time in seconds
sim_inst_rate             7358.0000 # simulation speed (in insts/sec)

sim_num_insn_by_pc     # total number of instructions executed (by text address)
sim_num_insn_by_pc.count = 1097
sim_num_insn_by_pc.total = 7357
sim_num_insn_by_pc.imin = 0x400140
sim_num_insn_by_pc.imax = 0x406020
sim_num_insn_by_pc.average =   6.7065
sim_num_insn_by_pc.std_dev =  40.4626
sim_num_insn_by_pc.overflows = 0
# pdf == prob dist fn, cdf == cumulative dist fn
#          index      count    pdf 
sim_num_insn_by_pc.start_dist
0x400140 1 0.01
0x400148 1 0.01
0x400150 1 0.01
0x400158 1 0.01
0x400160 1 0.01
0x400168 1 0.01
0x400170 1 0.01
0x400178 1 0.01
0x400180 1 0.01
0x400188 1 0.01
0x400190 1 0.01
0x400198 1 0.01
0x4001a0 1 0.01
0x4001a8 1 0.01
0x4001b0 1 0.01
0x4001b8 1 0.01
0x4001c0 1 0.01
0x4001c8 1 0.01
0x4001d0 1 0.01
0x4001d8 1 0.01
0x4001e0 1 0.01
0x4001f0 9 0.12
0x4001f8 9 0.12
0x400200 9 0.12
0x400208 9 0.12
0x400210 3 0.04
0x400218 3 0.04
0x400220 6 0.08
0x400228 9 0.12
0x400230 1 0.01
0x400238 1 0.01
0x400240 1 0.01
0x400248 1 0.01
0x400250 1 0.01
0x400258 1 0.01
0x400260 1 0.01
0x400268 1 0.01
0x400270 3 0.04
0x400278 3 0.04
0x400280 3 0.04
0x400288 9 0.12
0x400290 9 0.12
0x400298 9 0.12
0x4002a0 9 0.12
0x4002a8 9 0.12
0x4002b0 9 0.12
0x4002b8 9 0.12
0x4002c0 3 0.04
0x4002c8 3 0.04
0x4002d0 3 0.04
0x4002d8 3 0.04
0x4002e0 3 0.04
0x4002e8 1 0.01
0x4002f0 1 0.01
0x4002f8 1 0.01
0x400300 1 0.01
0x400308 1 0.01
0x400310 1 0.01
0x400318 1 0.01
0x400320 1 0.01
0x400328 1 0.01
0x400330 3 0.04
0x400338 3 0.04
0x400340 3 0.04
0x400348 9 0.12
0x400350 9 0.12
0x400358 9 0.12
0x400360 9 0.12
0x400368 9 0.12
0x400370 9 0.12
0x400378 9 0.12
0x400380 3 0.04
0x400388 3 0.04
0x400390 3 0.04
0x400398 3 0.04
0x4003a0 3 0.04
0x4003a8 1 0.01
0x4003b0 1 0.01
0x4003b8 1 0.01
0x4003c0 1 0.01
0x4003c8 1 0.01
0x4003d0 1 0.01
0x4003d8 1 0.01
0x4003e0 1 0.01
0x4003e8 1 0.01
0x4003f0 1 0.01
0x4003f8 1 0.01
0x400400 1 0.01
0x400408 1 0.01
0x400410 1 0.01
0x400428 1 0.01
0x400430 1 0.01
0x400438 1 0.01
0x400440 1 0.01
0x400448 1 0.01
0x400450 1 0.01
0x400458 1 0.01
0x400460 1 0.01
0x400468 1 0.01
0x400470 3 0.04
0x400478 3 0.04
0x400480 3 0.04
0x400488 3 0.04
0x400490 3 0.04
0x400498 9 0.12
0x4004a0 9 0.12
0x4004a8 9 0.12
0x4004b0 9 0.12
0x4004b8 9 0.12
0x4004c0 9 0.12
0x4004c8 9 0.12
0x4004d0 27 0.37
0x4004d8 27 0.37
0x4004e0 27 0.37
0x4004e8 27 0.37
0x4004f0 27 0.37
0x4004f8 27 0.37
0x400500 27 0.37
0x400508 27 0.37
0x400510 27 0.37
0x400518 27 0.37
0x400520 9 0.12
0x400528 9 0.12
0x400530 9 0.12
0x400538 9 0.12
0x400540 9 0.12
0x400548 9 0.12
0x400550 9 0.12
0x400558 3 0.04
0x400560 3 0.04
0x400568 3 0.04
0x400570 3 0.04
0x400578 3 0.04
0x400580 1 0.01
0x400588 1 0.01
0x400590 1 0.01
0x400598 1 0.01
0x4005a0 1 0.01
0x4005a8 1 0.01
0x4005b0 1 0.01
0x4005b8 1 0.01
0x4005c0 1 0.01
0x4005c8 1 0.01
0x4005d0 1 0.01
0x4005d8 1 0.01
0x4005e0 1 0.01
0x4005e8 1 0.01
0x4005f0 1 0.01
0x4005f8 1 0.01
0x400600 1 0.01
0x400608 1 0.01
0x400610 1 0.01
0x400618 1 0.01
0x400620 1 0.01
0x400628 1 0.01
0x400630 1 0.01
0x400638 1 0.01
0x400640 1 0.01
0x400648 1 0.01
0x400650 1 0.01
0x400658 1 0.01
0x400660 1 0.01
0x400690 1 0.01
0x400698 1 0.01
0x4006a0 1 0.01
0x4006a8 1 0.01
0x4006b0 3 0.04
0x4006b8 3 0.04
0x4006c0 3 0.04
0x4006c8 3 0.04
0x4006d0 3 0.04
0x4006d8 1 0.01
0x4006e0 1 0.01
0x4006e8 1 0.01
0x4006f0 1 0.01
0x4006f8 1 0.01
0x400700 1 0.01
0x400708 1 0.01
0x400710 1 0.01
0x400718 3 0.04
0x400720 3 0.04
0x400728 3 0.04
0x400730 3 0.04
0x400738 3 0.04
0x400740 3 0.04
0x400748 3 0.04
0x400750 3 0.04
0x400758 3 0.04
0x400760 3 0.04
0x400768 3 0.04
0x400770 3 0.04
0x400778 6 0.08
0x400780 6 0.08
0x400788 6 0.08
0x400790 6 0.08
0x400798 6 0.08
0x4007a0 6 0.08
0x4007a8 4 0.05
0x4007b0 4 0.05
0x4007b8 6 0.08
0x4007c0 6 0.08
0x4007c8 6 0.08
0x4007d0 6 0.08
0x4007d8 3 0.04
0x4007e0 3 0.04
0x4007e8 3 0.04
0x4007f0 3 0.04
0x4007f8 3 0.04
0x400800 3 0.04
0x400808 3 0.04
0x400810 3 0.04
0x400818 3 0.04
0x400820 3 0.04
0x400828 3 0.04
0x400830 3 0.04
0x400838 3 0.04
0x400840 3 0.04
0x400848 1 0.01
0x400850 1 0.01
0x400858 1 0.01
0x400860 1 0.01
0x400868 1 0.01
0x400870 1 0.01
0x400878 1 0.01
0x400880 1 0.01
0x400888 1 0.01
0x400890 1 0.01
0x400898 1 0.01
0x4008a0 1 0.01
0x4008a8 1 0.01
0x4008b0 1 0.01
0x4008b8 3 0.04
0x4008c0 3 0.04
0x4008c8 3 0.04
0x4008d0 3 0.04
0x4008d8 3 0.04
0x4008e0 3 0.04
0x4008e8 3 0.04
0x4008f0 3 0.04
0x4008f8 3 0.04
0x400900 3 0.04
0x400908 3 0.04
0x400910 3 0.04
0x400918 9 0.12
0x400920 9 0.12
0x400928 9 0.12
0x400930 9 0.12
0x400938 9 0.12
0x400940 9 0.12
0x400948 9 0.12
0x400950 3 0.04
0x400958 3 0.04
0x400960 3 0.04
0x400968 3 0.04
0x400970 3 0.04
0x400978 3 0.04
0x400980 9 0.12
0x400988 6 0.08
0x400990 6 0.08
0x400998 6 0.08
0x4009a0 6 0.08
0x4009a8 6 0.08
0x4009b0 6 0.08
0x4009b8 6 0.08
0x4009c0 6 0.08
0x4009c8 18 0.24
0x4009d0 12 0.16
0x4009d8 12 0.16
0x4009e0 12 0.16
0x4009e8 12 0.16
0x4009f0 12 0.16
0x4009f8 18 0.24
0x400a00 18 0.24
0x400a08 18 0.24
0x400a10 18 0.24
0x400a18 18 0.24
0x400a20 6 0.08
0x400a28 6 0.08
0x400a30 6 0.08
0x400a38 6 0.08
0x400a40 9 0.12
0x400a48 9 0.12
0x400a50 9 0.12
0x400a58 9 0.12
0x400a60 3 0.04
0x400a68 3 0.04
0x400a70 3 0.04
0x400a78 3 0.04
0x400a80 3 0.04
0x400a88 3 0.04
0x400a90 3 0.04
0x400a98 3 0.04
0x400aa0 3 0.04
0x400aa8 1 0.01
0x400ab0 1 0.01
0x400ab8 1 0.01
0x400ac0 1 0.01
0x400ac8 1 0.01
0x400ad0 1 0.01
0x400ad8 3 0.04
0x400ae0 4 0.05
0x400ae8 4 0.05
0x400af0 1 0.01
0x400af8 1 0.01
0x400b00 1 0.01
0x400b08 1 0.01
0x400b10 1 0.01
0x400b18 1 0.01
0x400b20 1 0.01
0x400b28 1 0.01
0x400b30 1 0.01
0x400b38 1 0.01
0x400b40 1 0.01
0x400b48 1 0.01
0x400b50 1 0.01
0x400b58 1 0.01
0x400b60 3 0.04
0x400b68 3 0.04
0x400b70 3 0.04
0x400b78 3 0.04
0x400b80 3 0.04
0x400b88 3 0.04
0x400b90 3 0.04
0x400b98 1 0.01
0x400ba0 3 0.04
0x400ba8 3 0.04
0x400bb0 3 0.04
0x400bb8 3 0.04
0x400bc0 1 0.01
0x400bc8 1 0.01
0x400bd0 1 0.01
0x400bd8 1 0.01
0x400be0 1 0.01
0x400be8 1 0.01
0x400bf0 1 0.01
0x400bf8 1 0.01
0x400c00 1 0.01
0x400c08 1 0.01
0x400c10 1 0.01
0x400c18 1 0.01
0x400c20 1 0.01
0x400c28 1 0.01
0x400c30 1 0.01
0x400c38 1 0.01
0x400c40 1 0.01
0x400c48 1 0.01
0x400c50 1 0.01
0x400c60 1 0.01
0x400c68 1 0.01
0x400c70 1 0.01
0x400c78 1 0.01
0x400c80 1 0.01
0x400c88 1 0.01
0x400c90 1 0.01
0x400c98 1 0.01
0x400ca0 1 0.01
0x400ca8 1 0.01
0x400cb0 1 0.01
0x400cb8 1 0.01
0x400cc0 1 0.01
0x400cc8 1 0.01
0x400cd0 1 0.01
0x400cd8 1 0.01
0x400ce0 1 0.01
0x400ce8 1 0.01
0x400cf0 1 0.01
0x400cf8 1 0.01
0x400d00 1 0.01
0x400d08 1 0.01
0x400d10 1 0.01
0x400dc0 1 0.01
0x400dc8 1 0.01
0x400dd0 1 0.01
0x400dd8 1 0.01
0x400de0 1 0.01
0x400e30 1 0.01
0x400e38 1 0.01
0x400e40 1 0.01
0x400e48 1 0.01
0x400e50 1 0.01
0x400e58 1 0.01
0x400e60 1 0.01
0x400e68 1 0.01
0x400e70 1 0.01
0x400e78 1 0.01
0x400e80 1 0.01
0x400e88 1 0.01
0x400e98 1 0.01
0x400ea0 1 0.01
0x400ea8 1 0.01
0x400eb0 1 0.01
0x400eb8 1 0.01
0x4010d0 1 0.01
0x4010d8 1 0.01
0x4010e0 1 0.01
0x4010e8 1 0.01
0x4010f0 1 0.01
0x4010f8 1 0.01
0x401100 1 0.01
0x401120 1 0.01
0x401140 1 0.01
0x401148 1 0.01
0x401150 1 0.01
0x401158 1 0.01
0x401160 1 0.01
0x401168 1 0.01
0x401188 1 0.01
0x401190 1 0.01
0x401198 1 0.01
0x4011a0 1 0.01
0x4011c0 1 0.01
0x4011c8 1 0.01
0x4011d0 1 0.01
0x4011d8 1 0.01
0x4011e0 1 0.01
0x4011e8 1 0.01
0x4011f0 1 0.01
0x4011f8 1 0.01
0x401200 1 0.01
0x401208 1 0.01
0x401210 1 0.01
0x401218 1 0.01
0x401220 1 0.01
0x401228 1 0.01
0x401230 1 0.01
0x401238 1 0.01
0x401240 1 0.01
0x401248 1 0.01
0x401250 1 0.01
0x401258 1 0.01
0x401260 1 0.01
0x401268 1 0.01
0x401270 1 0.01
0x401278 1 0.01
0x401288 1 0.01
0x401290 1 0.01
0x401298 1 0.01
0x4012a0 1 0.01
0x4012a8 1 0.01
0x4012b0 1 0.01
0x4012b8 1 0.01
0x4012c0 1 0.01
0x4012c8 1 0.01
0x4012d0 1 0.01
0x4012d8 1 0.01
0x4012e0 1 0.01
0x4012e8 1 0.01
0x4012f0 1 0.01
0x4012f8 1 0.01
0x401300 1 0.01
0x401308 1 0.01
0x401310 1 0.01
0x401318 1 0.01
0x401320 1 0.01
0x401328 1 0.01
0x401330 1 0.01
0x401338 1 0.01
0x401340 1 0.01
0x401348 1 0.01
0x401358 1 0.01
0x401360 1 0.01
0x401368 1 0.01
0x401370 1 0.01
0x401378 1 0.01
0x401380 1 0.01
0x401388 1 0.01
0x401390 1 0.01
0x401398 1 0.01
0x4013a0 1 0.01
0x4013a8 1 0.01
0x4013b0 1 0.01
0x4013b8 1 0.01
0x4013c0 1 0.01
0x4013c8 1 0.01
0x4013d0 1 0.01
0x4013d8 1 0.01
0x401408 1 0.01
0x401410 1 0.01
0x401420 1 0.01
0x401428 1 0.01
0x401440 1 0.01
0x401448 1 0.01
0x401450 1 0.01
0x401458 1 0.01
0x401468 1 0.01
0x401470 1 0.01
0x401478 1 0.01
0x401480 1 0.01
0x401488 1 0.01
0x401710 1 0.01
0x401718 1 0.01
0x401720 1 0.01
0x401728 1 0.01
0x401738 1 0.01
0x401740 1 0.01
0x401748 1 0.01
0x401750 1 0.01
0x401758 1 0.01
0x401760 1 0.01
0x401768 1 0.01
0x401770 1 0.01
0x401778 1 0.01
0x401780 1 0.01
0x401788 1 0.01
0x401790 1 0.01
0x401798 1 0.01
0x4017a0 1 0.01
0x4017a8 1 0.01
0x4017b0 1 0.01
0x4017b8 1 0.01
0x4017c0 1 0.01
0x4017c8 1 0.01
0x4017d0 1 0.01
0x4017d8 1 0.01
0x4017e0 1 0.01
0x4017f8 1 0.01
0x401800 1 0.01
0x401808 1 0.01
0x401810 1 0.01
0x401818 1 0.01
0x401820 1 0.01
0x401830 1 0.01
0x401838 1 0.01
0x401bd0 1 0.01
0x401bd8 1 0.01
0x401be0 1 0.01
0x401be8 1 0.01
0x401bf0 1 0.01
0x401bf8 1 0.01
0x401c00 1 0.01
0x401c08 1 0.01
0x401c10 1 0.01
0x401c18 1 0.01
0x401c20 1 0.01
0x401c28 1 0.01
0x401c30 1 0.01
0x401c38 1 0.01
0x401c40 1 0.01
0x401c48 1 0.01
0x401c50 1 0.01
0x401c58 1 0.01
0x401c60 1 0.01
0x401c68 1 0.01
0x401c70 1 0.01
0x401c78 1 0.01
0x401c80 1 0.01
0x401c88 1 0.01
0x401c90 1 0.01
0x401c98 1 0.01
0x401d80 1 0.01
0x401d88 1 0.01
0x401d90 1 0.01
0x401d98 1 0.01
0x401da0 1 0.01
0x401da8 1 0.01
0x401db0 1 0.01
0x401dc0 1 0.01
0x401dc8 1 0.01
0x401dd0 1 0.01
0x401dd8 1 0.01
0x401de0 1 0.01
0x401de8 1 0.01
0x401df0 1 0.01
0x401df8 1 0.01
0x401e00 1 0.01
0x401e08 1 0.01
0x401e10 1 0.01
0x401e18 1 0.01
0x401e20 1 0.01
0x401e28 1 0.01
0x401e30 1 0.01
0x401e38 1 0.01
0x401e40 1 0.01
0x4020d8 1 0.01
0x4020e0 1 0.01
0x4020e8 1 0.01
0x4020f0 1 0.01
0x4020f8 1 0.01
0x402100 1 0.01
0x402108 1 0.01
0x402110 1 0.01
0x402120 4 0.05
0x402128 4 0.05
0x402130 4 0.05
0x402138 4 0.05
0x402140 4 0.05
0x402148 4 0.05
0x402150 4 0.05
0x402158 1 0.01
0x402160 1 0.01
0x402168 1 0.01
0x402170 1 0.01
0x402178 1 0.01
0x402180 1 0.01
0x402188 3 0.04
0x402190 3 0.04
0x4021a8 3 0.04
0x4021b0 3 0.04
0x4021b8 3 0.04
0x4021c0 3 0.04
0x4021c8 3 0.04
0x4021d0 3 0.04
0x4021d8 1 0.01
0x4021e0 1 0.01
0x4021e8 3 0.04
0x4021f0 3 0.04
0x4021f8 3 0.04
0x402200 3 0.04
0x402218 3 0.04
0x402220 3 0.04
0x402228 3 0.04
0x402230 3 0.04
0x402258 3 0.04
0x402260 3 0.04
0x402268 3 0.04
0x402270 2 0.03
0x402278 2 0.03
0x402280 2 0.03
0x402288 2 0.03
0x402290 2 0.03
0x4022a8 3 0.04
0x4022b0 3 0.04
0x4022b8 1 0.01
0x4022c0 1 0.01
0x4022c8 1 0.01
0x4022d0 1 0.01
0x4022d8 3 0.04
0x4022e0 3 0.04
0x4022e8 2 0.03
0x4022f0 2 0.03
0x4022f8 2 0.03
0x402300 2 0.03
0x402308 1 0.01
0x402310 1 0.01
0x402318 1 0.01
0x402320 1 0.01
0x402328 1 0.01
0x402348 1 0.01
0x402350 3 0.04
0x402358 3 0.04
0x402360 3 0.04
0x402368 4 0.05
0x402370 4 0.05
0x402378 4 0.05
0x402380 4 0.05
0x402388 4 0.05
0x402390 4 0.05
0x4023c0 1 0.01
0x4023c8 1 0.01
0x4023d0 1 0.01
0x4023d8 1 0.01
0x402410 1 0.01
0x402418 1 0.01
0x402420 1 0.01
0x402428 1 0.01
0x402430 1 0.01
0x402438 1 0.01
0x402440 2 0.03
0x402448 2 0.03
0x402450 2 0.03
0x402458 2 0.03
0x402460 2 0.03
0x402468 2 0.03
0x402470 2 0.03
0x402478 2 0.03
0x402480 1 0.01
0x402488 1 0.01
0x402490 1 0.01
0x402498 1 0.01
0x4024a0 1 0.01
0x4024a8 1 0.01
0x4024b0 1 0.01
0x4024b8 1 0.01
0x4024c0 1 0.01
0x4024c8 1 0.01
0x4024d0 1 0.01
0x4024d8 1 0.01
0x4024e0 1 0.01
0x4024e8 1 0.01
0x4024f0 1 0.01
0x4024f8 1 0.01
0x402500 1 0.01
0x402508 1 0.01
0x402548 1 0.01
0x402550 1 0.01
0x402558 1 0.01
0x402560 3 0.04
0x402568 3 0.04
0x402570 3 0.04
0x402578 3 0.04
0x402580 3 0.04
0x402588 3 0.04
0x402590 3 0.04
0x402598 3 0.04
0x4025a0 3 0.04
0x4025a8 3 0.04
0x4025b0 4 0.05
0x4025b8 4 0.05
0x4025c0 4 0.05
0x4025c8 4 0.05
0x4025d0 4 0.05
0x4025d8 4 0.05
0x4025e0 4 0.05
0x4025e8 4 0.05
0x4025f0 4 0.05
0x4025f8 4 0.05
0x402628 4 0.05
0x402630 4 0.05
0x402638 4 0.05
0x402640 390 5.30
0x402648 390 5.30
0x402650 390 5.30
0x402658 390 5.30
0x402660 390 5.30
0x402668 390 5.30
0x402670 390 5.30
0x402678 390 5.30
0x402680 390 5.30
0x402688 390 5.30
0x402690 390 5.30
0x402698 390 5.30
0x4026a0 4 0.05
0x4026a8 4 0.05
0x4026b0 4 0.05
0x4026b8 12 0.16
0x4026c0 12 0.16
0x4026c8 12 0.16
0x4026d0 12 0.16
0x4026d8 4 0.05
0x4026e0 4 0.05
0x402708 4 0.05
0x402710 4 0.05
0x4028e0 1 0.01
0x4028e8 1 0.01
0x4028f0 1 0.01
0x4028f8 1 0.01
0x402900 1 0.01
0x402908 1 0.01
0x402910 1 0.01
0x402918 1 0.01
0x402920 1 0.01
0x402928 1 0.01
0x402938 1 0.01
0x402940 1 0.01
0x402948 1 0.01
0x402950 1 0.01
0x402958 1 0.01
0x402960 1 0.01
0x402968 1 0.01
0x402970 1 0.01
0x402978 1 0.01
0x402980 1 0.01
0x402988 1 0.01
0x402990 1 0.01
0x402998 1 0.01
0x4029a0 1 0.01
0x4029a8 1 0.01
0x4029b0 1 0.01
0x4029b8 1 0.01
0x4029c0 1 0.01
0x4029c8 1 0.01
0x4029d0 1 0.01
0x4029d8 1 0.01
0x4029e0 1 0.01
0x4029e8 1 0.01
0x4029f0 1 0.01
0x4029f8 1 0.01
0x402a48 1 0.01
0x402a50 1 0.01
0x402a58 1 0.01
0x402a60 1 0.01
0x402a68 1 0.01
0x402a70 1 0.01
0x402a78 1 0.01
0x402a90 1 0.01
0x402a98 1 0.01
0x402aa0 1 0.01
0x402aa8 1 0.01
0x402ab0 1 0.01
0x402ab8 1 0.01
0x402ac0 1 0.01
0x402ac8 1 0.01
0x402ad0 1 0.01
0x402ad8 1 0.01
0x402ae0 1 0.01
0x402ae8 1 0.01
0x402af0 1 0.01
0x402b40 1 0.01
0x402b48 1 0.01
0x402b50 1 0.01
0x402b58 1 0.01
0x402b60 1 0.01
0x402b68 1 0.01
0x402b70 1 0.01
0x402b78 1 0.01
0x402b80 1 0.01
0x402b88 1 0.01
0x402b90 1 0.01
0x402b98 1 0.01
0x402ba0 1 0.01
0x402ba8 1 0.01
0x402bb0 1 0.01
0x402bb8 1 0.01
0x402bc0 1 0.01
0x402bc8 1 0.01
0x402bd0 1 0.01
0x402bd8 1 0.01
0x402be0 1 0.01
0x402be8 1 0.01
0x402bf0 1 0.01
0x402bf8 1 0.01
0x402c00 1 0.01
0x402c08 1 0.01
0x402c10 1 0.01
0x402c18 1 0.01
0x402cd0 1 0.01
0x402cd8 1 0.01
0x402ce0 1 0.01
0x402ce8 1 0.01
0x402cf0 1 0.01
0x402e40 1 0.01
0x402e48 1 0.01
0x403158 1 0.01
0x403160 1 0.01
0x403168 1 0.01
0x403170 1 0.01
0x403178 1 0.01
0x403180 1 0.01
0x403188 1 0.01
0x403190 1 0.01
0x403198 1 0.01
0x4031a0 1 0.01
0x4031a8 1 0.01
0x4031b0 1 0.01
0x4031d8 1 0.01
0x4031e0 1 0.01
0x403210 1 0.01
0x403218 1 0.01
0x403220 1 0.01
0x403228 1 0.01
0x403658 2 0.03
0x403660 2 0.03
0x403668 2 0.03
0x403670 2 0.03
0x403678 2 0.03
0x403680 2 0.03
0x403688 2 0.03
0x403690 2 0.03
0x403698 2 0.03
0x4036a0 2 0.03
0x4036a8 2 0.03
0x4036b0 2 0.03
0x4036b8 2 0.03
0x4036c0 2 0.03
0x4036c8 2 0.03
0x4036d0 2 0.03
0x4036d8 2 0.03
0x4036e0 2 0.03
0x4036e8 2 0.03
0x4036f0 2 0.03
0x4036f8 2 0.03
0x403700 2 0.03
0x403708 2 0.03
0x403710 2 0.03
0x403718 2 0.03
0x403720 2 0.03
0x403728 2 0.03
0x403730 2 0.03
0x4038e8 2 0.03
0x4038f0 2 0.03
0x4038f8 1 0.01
0x403900 1 0.01
0x403908 1 0.01
0x403910 1 0.01
0x403918 1 0.01
0x403920 1 0.01
0x403928 1 0.01
0x403990 2 0.03
0x403998 2 0.03
0x4039a0 2 0.03
0x4039a8 2 0.03
0x4039e0 2 0.03
0x4039e8 2 0.03
0x4039f0 2 0.03
0x4039f8 2 0.03
0x403a00 2 0.03
0x403a08 2 0.03
0x403a10 2 0.03
0x403a18 2 0.03
0x403a20 2 0.03
0x403a28 2 0.03
0x403a30 2 0.03
0x403d30 2 0.03
0x403d38 2 0.03
0x403d40 2 0.03
0x403d48 2 0.03
0x403d50 2 0.03
0x403d58 2 0.03
0x403d60 2 0.03
0x403d68 2 0.03
0x403d70 2 0.03
0x403d88 2 0.03
0x403d90 2 0.03
0x403d98 2 0.03
0x403da0 2 0.03
0x403da8 2 0.03
0x403db0 2 0.03
0x403db8 2 0.03
0x403dc0 2 0.03
0x403dc8 2 0.03
0x403dd0 2 0.03
0x403dd8 2 0.03
0x404270 2 0.03
0x404278 2 0.03
0x404280 2 0.03
0x404288 2 0.03
0x404290 2 0.03
0x404298 2 0.03
0x4042a0 2 0.03
0x4042a8 2 0.03
0x4042b0 2 0.03
0x4042b8 2 0.03
0x4042c0 2 0.03
0x4042c8 2 0.03
0x4042d0 2 0.03
0x4042d8 2 0.03
0x4042e0 2 0.03
0x4042f8 2 0.03
0x404300 2 0.03
0x404308 2 0.03
0x404310 2 0.03
0x404318 2 0.03
0x404320 2 0.03
0x404328 2 0.03
0x404350 2 0.03
0x404358 2 0.03
0x404360 2 0.03
0x404368 2 0.03
0x404370 2 0.03
0x4043a8 2 0.03
0x4043b0 2 0.03
0x4043b8 2 0.03
0x4043c0 2 0.03
0x4043c8 2 0.03
0x4043d0 2 0.03
0x4043d8 2 0.03
0x4043e0 2 0.03
0x4043e8 2 0.03
0x4043f0 2 0.03
0x4043f8 2 0.03
0x404400 2 0.03
0x404408 2 0.03
0x404410 2 0.03
0x404418 2 0.03
0x404420 2 0.03
0x404428 2 0.03
0x404430 2 0.03
0x404438 2 0.03
0x404440 2 0.03
0x404448 2 0.03
0x404450 2 0.03
0x404458 2 0.03
0x404460 2 0.03
0x404468 2 0.03
0x404470 2 0.03
0x404478 2 0.03
0x404480 2 0.03
0x404488 2 0.03
0x404490 2 0.03
0x404498 1 0.01
0x4044a0 1 0.01
0x4044b8 1 0.01
0x4044c0 1 0.01
0x4044c8 1 0.01
0x4044d0 1 0.01
0x4044d8 1 0.01
0x4044e0 1 0.01
0x4044e8 1 0.01
0x404520 1 0.01
0x404528 1 0.01
0x404530 1 0.01
0x404558 2 0.03
0x404560 2 0.03
0x404568 2 0.03
0x404570 2 0.03
0x404578 2 0.03
0x404580 2 0.03
0x404588 2 0.03
0x404590 2 0.03
0x404598 2 0.03
0x4045c8 2 0.03
0x404690 2 0.03
0x404698 2 0.03
0x4046a0 2 0.03
0x4046c8 2 0.03
0x4046d0 2 0.03
0x4046e0 2 0.03
0x4046e8 2 0.03
0x4046f0 2 0.03
0x4046f8 2 0.03
0x404700 2 0.03
0x404708 2 0.03
0x404738 2 0.03
0x404740 2 0.03
0x404748 2 0.03
0x404750 2 0.03
0x404768 2 0.03
0x404770 2 0.03
0x404778 2 0.03
0x404780 2 0.03
0x404788 2 0.03
0x404790 2 0.03
0x404798 2 0.03
0x4047a0 2 0.03
0x404d38 3 0.04
0x404d40 3 0.04
0x404d48 3 0.04
0x404d50 3 0.04
0x404d58 3 0.04
0x404d60 3 0.04
0x404d68 3 0.04
0x404d70 3 0.04
0x404d78 3 0.04
0x404d80 3 0.04
0x404d88 3 0.04
0x404d90 3 0.04
0x404d98 3 0.04
0x404da0 3 0.04
0x404da8 3 0.04
0x404f50 2 0.03
0x404f58 2 0.03
0x404f60 2 0.03
0x404f68 2 0.03
0x404f70 2 0.03
0x404f78 2 0.03
0x4053f0 3 0.04
0x4053f8 3 0.04
0x405400 3 0.04
0x405408 3 0.04
0x405420 3 0.04
0x405428 3 0.04
0x405430 3 0.04
0x405438 3 0.04
0x405440 3 0.04
0x405448 3 0.04
0x405450 3 0.04
0x405458 3 0.04
0x405460 3 0.04
0x405468 3 0.04
0x405470 3 0.04
0x405cd0 2 0.03
0x405cd8 2 0.03
0x405ce0 2 0.03
0x405ce8 2 0.03
0x405cf0 2 0.03
0x405cf8 2 0.03
0x405d00 2 0.03
0x405d08 2 0.03
0x405d10 2 0.03
0x405d18 2 0.03
0x405d20 2 0.03
0x405d28 1 0.01
0x405d30 1 0.01
0x405d38 1 0.01
0x405d40 1 0.01
0x405d48 1 0.01
0x405d50 1 0.01
0x405d58 1 0.01
0x405d60 1 0.01
0x405d88 1 0.01
0x405d90 1 0.01
0x405dd0 1 0.01
0x405dd8 1 0.01
0x405de0 2 0.03
0x405de8 2 0.03
0x405df0 2 0.03
0x405df8 2 0.03
0x405e00 2 0.03
0x405ee0 2 0.03
0x405ee8 2 0.03
0x405ef0 2 0.03
0x405ef8 2 0.03
0x405f00 2 0.03
0x405f90 3 0.04
0x405f98 3 0.04
0x405fa0 3 0.04
0x405fb0 3 0.04
0x405fb8 3 0.04
0x405fc0 3 0.04
0x405fc8 3 0.04
0x405fd0 3 0.04
0x405fd8 3 0.04
0x406000 1 0.01
0x406008 1 0.01
0x406010 1 0.01
0x406018 1 0.01
0x406020 1 0.01
sim_num_insn_by_pc.end_dist

ld_text_base             0x00400000 # program text (code) segment base
ld_text_size                  24928 # program text (code) size in bytes
ld_data_base             0x10000000 # program initialized data segment base
ld_data_size                   4096 # program init'ed `.data' and uninit'ed `.bss' size in bytes
ld_stack_base            0x7fffc000 # program stack segment base (highest address in stack)
ld_stack_size                 16384 # program initial stack size
ld_prog_entry            0x00400140 # program entry point (initial PC)
ld_environ_base          0x7fff8000 # program environment base address address
ld_target_big_endian              0 # target executable endian-ness, non-zero if big endian
mem.page_count                   13 # total number of pages allocated
mem.page_mem                    52k # total size of memory pages allocated
mem.ptab_misses                  13 # total first level page table misses
mem.ptab_accesses            194882 # total page table accesses
mem.ptab_miss_rate           0.0001 # first level page table miss rate

+--------------------------------------------------------------+
| effective code range:         [0, fffffff8]                  |
| effective bpred count:        0                              |
| effective sim cycles:         0                              |
| effective bpred misses:       0                              |
| effective icache misses:      0                              |
+--------------------------------------------------------------+

